10	5
0	5	3	1	2	4	5
1	1	6
2	1	8
3	1	9
4	1	10
5	2	7	9
6	0
7	2	1	11
8	1	11
9	1	11
10	1	11
11	0
0	0	0	0	0	0	0
1	1	1	5	5	5	4
2	8	5	1	5	2	2
3	5	5	1	5	4	4
4	9	2	5	3	1	3
5	3	1	5	1	2	3
6	5	4	3	1	1	2
7	9	2	1	1	2	1
8	8	5	1	3	2	5
9	7	2	2	1	3	2
10	3	3	5	5	3	1
11	0	0	0	0	0	0
9	9	9	8	9
